
Gurobi 10.0.2 (linux64, gurobi_cl) logging started Wed Nov 29 19:40:49 2023

Set parameter Username
Set parameter LogFile to value "gurobi.log"
Academic license - for non-commercial use only - expires 2024-09-09
Using license file /home/benja/gurobi.lic

Gurobi Optimizer version 10.0.2 build v10.0.2rc0 (linux64)
Copyright (c) 2023, Gurobi Optimization, LLC


Error 10003: Unable to open file 'test.lp' for input


Gurobi 10.0.2 (linux64, gurobi_cl) logging started Wed Nov 29 19:41:35 2023

Set parameter Username
Set parameter LogFile to value "gurobi.log"
Academic license - for non-commercial use only - expires 2024-09-09
Using license file /home/benja/gurobi.lic

Gurobi Optimizer version 10.0.2 build v10.0.2rc0 (linux64)
Copyright (c) 2023, Gurobi Optimization, LLC


Error 10003: Unable to open file './test.lp' for input

